Problem:    Portavalori
Rows:       10
Columns:    9 (9 integer, 9 binary)
Non-zeros:  36
Status:     INTEGER OPTIMAL
Objective:  spesa = 526.25 (MINimum)

   No.   Row name        Activity     Lower bound   Upper bound
------ ------------    ------------- ------------- -------------
     1 assegnamento[1]
                                   1             1               
     2 assegnamento[2]
                                   1             1               
     3 assegnamento[3]
                                   3             1               
     4 assegnamentoFurgni[1]
                                   1             1               
     5 assegnamentoFurgni[2]
                                   1             1               
     6 assegnamentoFurgni[3]
                                   3             1               
     7 spostaTutto[1]
                                4000          3500               
     8 spostaTutto[2]
                                4000          3500               
     9 spostaTutto[3]
                                6500          3500               
    10 spesa                  526.25                             

   No. Column name       Activity     Lower bound   Upper bound
------ ------------    ------------- ------------- -------------
     1 x[1,1]       *              0             0             1 
     2 x[2,1]       *              0             0             1 
     3 x[3,1]       *              1             0             1 
     4 x[1,2]       *              0             0             1 
     5 x[2,2]       *              0             0             1 
     6 x[3,2]       *              1             0             1 
     7 x[1,3]       *              1             0             1 
     8 x[2,3]       *              1             0             1 
     9 x[3,3]       *              1             0             1 

Integer feasibility conditions:

KKT.PE: max.abs.err = 0.00e+000 on row 0
        max.rel.err = 0.00e+000 on row 0
        High quality

KKT.PB: max.abs.err = 0.00e+000 on row 0
        max.rel.err = 0.00e+000 on row 0
        High quality

End of output
